Route #1: 5 15 28 40 48 59 81 87 95 98 99 100 89 76 88 74 75 60 49 35 36 41 56 61 62 69 70 82 90 83 84 91 92 77 85 78 86 96 97 93 94 80 68 79 73 67 66 54 47 58 55 39 38 34 23 24 11 4 10 14 3 2 13 27 22 33 37 32 46 26 21 9 8 20 31 44 45 52 53 65 72 64 71 57 51 63 50 43 42 29 30 17 18 19 7 1 12 16 25 6
Cost 47094
